instances/knapsack/discrete/knapsack_150_15.lp
\ Model knapsack_150_15
\ LP format - for model browsing. Use MPS format to capture full model detail.
\ Signature: 0x1d3d114bfbe69093
Minimize
  - 27 x[0] - 80 x[1] - 93 x[2] - 41 x[3] - 11 x[4] - 10 x[5] - 87 x[6]
   - 33 x[7] - 60 x[8] - 40 x[9] - 32 x[10] - 52 x[11] - 72 x[12]
   - 27 x[13] - 100 x[14] - 37 x[15] - 59 x[16] - 23 x[17] - 100 x[18]
   - 75 x[19] - 43 x[20] - 28 x[21] - 53 x[22] - 41 x[23] - 70 x[24]
   - 56 x[25] - 9 x[26] - 73 x[27] - 55 x[28] - 34 x[29] - 18 x[30]
   - 13 x[31] - 53 x[32] - 56 x[33] - 21 x[34] - 14 x[35] - 10 x[36]
   - 96 x[37] - 28 x[38] - 89 x[39] - 37 x[40] - 63 x[41] - 59 x[42]
   - 40 x[43] - 84 x[44] - 44 x[45] - 34 x[46] - 2 x[47] - 82 x[48]
   - 7 x[49] - 24 x[50] - 68 x[51] - 40 x[52] - 42 x[53] - 85 x[54]
   - 35 x[55] - 36 x[56] - 89 x[57] - x[58] - 76 x[59] - 49 x[60]
   - 27 x[61] - 19 x[62] - 23 x[63] - 4 x[64] - 74 x[65] - 74 x[66]
   - 87 x[67] - 22 x[68] - 15 x[69] - 22 x[70] - 80 x[71] - 90 x[72]
   - 87 x[73] - 36 x[74] - 31 x[75] - 11 x[76] - 66 x[77] - 49 x[78]
   - 89 x[79] - 92 x[80] - 19 x[81] - 11 x[82] - 55 x[83] - 90 x[84]
   - 46 x[85] - 99 x[86] - 88 x[87] - 13 x[88] - 92 x[89] - 87 x[90]
   - 7 x[91] - 31 x[92] - 38 x[93] - 45 x[94] - 36 x[95] - 10 x[96]
   - 93 x[97] - 26 x[98] - 22 x[99] - 38 x[100] - 55 x[101] - 16 x[102]
   - 47 x[103] - 8 x[104] - 92 x[105] - 51 x[106] - 10 x[107] - 87 x[108]
   - 98 x[109] - 95 x[110] - 79 x[111] - 67 x[112] - 41 x[113] - 15 x[114]
   - 50 x[115] - 60 x[116] - 98 x[117] - 87 x[118] - 12 x[119] - 67 x[120]
   - 84 x[121] - 63 x[122] - 64 x[123] - 69 x[124] - 58 x[125] - 94 x[126]
   - 11 x[127] - 93 x[128] - 38 x[129] - 4 x[130] - 80 x[131] - 25 x[132]
   - 92 x[133] - 47 x[134] - 73 x[135] - 26 x[136] - 63 x[137] - 8 x[138]
   - 59 x[139] - 67 x[140] - 30 x[141] - 63 x[142] - 45 x[143] - 61 x[144]
   - 44 x[145] - 18 x[146] - 12 x[147] - 58 x[148] - 92 x[149]
Subject To
 primal_upper: 65 x[0] + 93 x[1] + 83 x[2] + 76 x[3] + 93 x[4] + 71 x[5]
   + 26 x[6] + 69 x[7] + 58 x[8] + 19 x[9] + 17 x[10] + 40 x[11] + 93 x[12]
   + 29 x[13] + 50 x[14] + 62 x[15] + 90 x[16] + 45 x[17] + 18 x[18]
   + 47 x[19] + 66 x[20] + 53 x[21] + 17 x[22] + 84 x[23] + 22 x[24]
   + 9 x[25] + 19 x[26] + 77 x[27] + 23 x[28] + 64 x[29] + 55 x[30]
   + 9 x[31] + 45 x[32] + 70 x[33] + 13 x[34] + 74 x[35] + 45 x[36]
   + 94 x[37] + 49 x[38] + 4 x[39] + 56 x[40] + 59 x[41] + 31 x[42]
   + 11 x[43] + 24 x[44] + 44 x[45] + 35 x[46] + 63 x[47] + 16 x[48]
   + 61 x[49] + 12 x[50] + 69 x[51] + 70 x[52] + x[53] + 62 x[54]
   + 65 x[55] + 90 x[56] + 68 x[57] + 33 x[58] + 43 x[59] + 38 x[60]
   + 72 x[61] + 9 x[62] + 32 x[63] + 85 x[64] + 17 x[65] + 22 x[66]
   + 52 x[67] + 29 x[68] + 23 x[69] + 79 x[70] + 59 x[71] + 23 x[72]
   + 88 x[73] + 77 x[74] + 14 x[75] + 44 x[76] + 96 x[77] + 98 x[78]
   + 68 x[79] + 31 x[80] + 19 x[81] + 64 x[82] + 75 x[83] + 67 x[84]
   + 7 x[85] + 21 x[86] + 41 x[87] + 35 x[88] + 96 x[89] + 70 x[90]
   + 54 x[91] + 46 x[92] + 5 x[93] + 49 x[94] + 10 x[95] + 66 x[96]
   + 70 x[97] + 97 x[98] + 69 x[99] + 66 x[100] + 57 x[101] + 23 x[102]
   + 81 x[103] + 78 x[104] + 99 x[105] + 16 x[106] + 80 x[107] + 80 x[108]
   + 46 x[109] + 96 x[110] + 68 x[111] + 2 x[112] + 90 x[113] + 54 x[114]
   + 80 x[115] + 12 x[116] + 54 x[117] + 34 x[118] + 66 x[119] + 57 x[120]
   + 6 x[121] + 57 x[122] + 52 x[123] + 34 x[124] + 92 x[125] + 49 x[126]
   + 77 x[127] + 44 x[128] + 28 x[129] + 95 x[130] + 98 x[131] + 24 x[132]
   + x[133] + 6 x[134] + 83 x[135] + 22 x[136] + 88 x[137] + 31 x[138]
   + 17 x[139] + 76 x[140] + 94 x[141] + 76 x[142] + 52 x[143] + 38 x[144]
   + 63 x[145] + 3 x[146] + 88 x[147] + 94 x[148] + 47 x[149] + 6.5 r[0]
   + 9.3 r[1] + 8.3 r[2] + 7.6 r[3] + 9.3 r[4] + 7.1 r[5] + 2.6 r[6]
   + 6.9 r[7] + 5.8 r[8] + 1.9 r[9] + 1.7 r[10] + 4 r[11] + 9.3 r[12]
   + 2.9 r[13] + 5 r[14] + 6.2 r[15] + 9 r[16] + 4.5 r[17] + 1.8 r[18]
   + 4.7 r[19] + 6.6 r[20] + 5.3 r[21] + 1.7 r[22] + 8.4 r[23] + 2.2 r[24]
   + 0.9 r[25] + 1.9 r[26] + 7.7 r[27] + 2.3 r[28] + 6.4 r[29] + 5.5 r[30]
   + 0.9 r[31] + 4.5 r[32] + 7 r[33] + 1.3 r[34] + 7.4 r[35] + 4.5 r[36]
   + 9.4 r[37] + 4.9 r[38] + 0.4 r[39] + 5.6 r[40] + 5.9 r[41] + 3.1 r[42]
   + 1.1 r[43] + 2.4 r[44] + 4.4 r[45] + 3.5 r[46] + 6.3 r[47] + 1.6 r[48]
   + 6.1 r[49] + 1.2 r[50] + 6.9 r[51] + 7 r[52] + 0.1 r[53] + 6.2 r[54]
   + 6.5 r[55] + 9 r[56] + 6.8 r[57] + 3.3 r[58] + 4.3 r[59] + 3.8 r[60]
   + 7.2 r[61] + 0.9 r[62] + 3.2 r[63] + 8.5 r[64] + 1.7 r[65] + 2.2 r[66]
   + 5.2 r[67] + 2.9 r[68] + 2.3 r[69] + 7.9 r[70] + 5.9 r[71] + 2.3 r[72]
   + 8.8 r[73] + 7.7 r[74] + 1.4 r[75] + 4.4 r[76] + 9.6 r[77] + 9.8 r[78]
   + 6.8 r[79] + 3.1 r[80] + 1.9 r[81] + 6.4 r[82] + 7.5 r[83] + 6.7 r[84]
   + 0.7 r[85] + 2.1 r[86] + 4.1 r[87] + 3.5 r[88] + 9.6 r[89] + 7 r[90]
   + 5.4 r[91] + 4.6 r[92] + 0.5 r[93] + 4.9 r[94] + r[95] + 6.6 r[96]
   + 7 r[97] + 9.7 r[98] + 6.9 r[99] + 6.6 r[100] + 5.7 r[101] + 2.3 r[102]
   + 8.1 r[103] + 7.8 r[104] + 9.9 r[105] + 1.6 r[106] + 8 r[107]
   + 8 r[108] + 4.6 r[109] + 9.6 r[110] + 6.8 r[111] + 0.2 r[112]
   + 9 r[113] + 5.4 r[114] + 8 r[115] + 1.2 r[116] + 5.4 r[117]
   + 3.4 r[118] + 6.6 r[119] + 5.7 r[120] + 0.6 r[121] + 5.7 r[122]
   + 5.2 r[123] + 3.4 r[124] + 9.2 r[125] + 4.9 r[126] + 7.7 r[127]
   + 4.4 r[128] + 2.8 r[129] + 9.5 r[130] + 9.8 r[131] + 2.4 r[132]
   + 0.1 r[133] + 0.6 r[134] + 8.3 r[135] + 2.2 r[136] + 8.8 r[137]
   + 3.1 r[138] + 1.7 r[139] + 7.6 r[140] + 9.4 r[141] + 7.6 r[142]
   + 5.2 r[143] + 3.8 r[144] + 6.3 r[145] + 0.3 r[146] + 8.8 r[147]
   + 9.4 r[148] + 4.7 r[149] <= 737
 primal_lower: 0.4463141985505662 x[0] + 2.478749350547614 x[1]
   + 4.004065553630935 x[2] + 3.214967606152832 x[3]
   + 3.380957344995069 x[4] + 0.6238798686581584 x[5]
   + 4.587596797278231 x[6] + 2.159980497857719 x[7]
   + 1.187150339447711 x[8] + 0.29865348545563 x[9]
   + 1.385922926652992 x[10] + 2.907822627792427 x[11]
   + 1.345163115993893 x[12] + 2.409085103895432 x[13]
   + 3.92895099531799 x[14] + 0.0733766250574621 x[15]
   + 2.293783394224944 x[16] + 1.943078388046406 x[17]
   + 4.12479681708338 x[18] + 0.8971746048678406 x[19]
   + 0.9839496278984322 x[20] + 1.90786680700384 x[21]
   + 3.395699910619588 x[22] + 0.8533493140875625 x[23]
   + 3.427797100229468 x[24] + 2.472120525645907 x[25]
   + 0.3716697831886061 x[26] + 1.731846009723743 x[27]
   + 1.975095138083769 x[28] + 0.259196732106062 x[29]
   + 1.030761414429316 x[30] + 3.93624680019867 x[31]
   + 4.030202712467127 x[32] + 0.757860285542813 x[33]
   + 4.690407850427021 x[34] + 0.3362937306048489 x[35]
   + 1.249911804571244 x[36] + 3.18443082910051 x[37]
   + 4.474197232966005 x[38] + 1.377920302508225 x[39]
   + 4.622685842623992 x[40] + 1.157702327917472 x[41]
   + 1.428161924686737 x[42] + 1.434694856671209 x[43]
   + 0.2722333027788342 x[44] + 0.0873195076986407 x[45]
   + 3.734749572790118 x[46] + 0.131372710682175 x[47]
   + 4.37333957411432 x[48] + 0.3699781021210526 x[49]
   + 0.8750057378355831 x[50] + 2.700973674317868 x[51]
   + 0.22527078484672 x[52] + 1.337906389992126 x[53]
   + 1.207903232767733 x[54] + 0.2819779514116804 x[55]
   + 4.137931817193291 x[56] + 0.135442067077798 x[57]
   + 0.386549815763796 x[58] + 0.0650403645400147 x[59]
   + 3.985583933142157 x[60] + 3.501035463325246 x[61]
   + 1.851604670512641 x[62] + 1.308488526516908 x[63]
   + 4.698543438262933 x[64] + 1.636726785564732 x[65]
   + 0.2542067091205176 x[66] + 2.114226875213082 x[67]
   + 3.737400977373134 x[68] + 0.9849141347971873 x[69]
   + 2.627388275156956 x[70] + 4.379119758037555 x[71]
   + 3.779249053675822 x[72] + 2.837272063078123 x[73]
   + 0.1782011066080101 x[74] + 0.5550819909957558 x[75]
   + 3.464503929694385 x[76] + 1.060436862590827 x[77]
   + 2.871959895531004 x[78] + 1.40154849986056 x[79]
   + 0.6549273980183086 x[80] + 1.972844238470889 x[81]
   + 1.036881949965933 x[82] + 4.425730283207694 x[83]
   + 0.0378067931813521 x[84] + 1.464208676803125 x[85]
   + 3.956335648538226 x[86] + 2.914839010890538 x[87]
   + 1.839793911266059 x[88] + 0.0134463161924255 x[89]
   + 0.7692812396902994 x[90] + 2.677607836758526 x[91]
   + 0.1506521443203776 x[92] + 1.255955722048986 x[93]
   + 4.136917990779531 x[94] + 4.286637271701665 x[95]
   + 4.074208632800127 x[96] + 0.7362973908485225 x[97]
   + 2.698365098338189 x[98] + 3.26986358115544 x[99]
   + 3.535318012206407 x[100] + 1.849693086422407 x[101]
   + 2.34314231317727 x[102] + 2.602970961854994 x[103]
   + 2.11406659703851 x[104] + 0.6498134133072279 x[105]
   + 2.206985615828185 x[106] + 3.804629924277623 x[107]
   + 0.8244247450238945 x[108] + 4.664844491891504 x[109]
   + 2.051771252660196 x[110] + 0.1674634442377056 x[111]
   + 1.653413833769969 x[112] + 2.692326301289403 x[113]
   + 0.161036988449113 x[114] + 2.17358404764168 x[115]
   + 3.84583178073748 x[116] + 4.05098137215292 x[117]
   + 4.585308025470979 x[118] + 2.148926704774567 x[119]
   + 3.198290543501467 x[120] + 3.545344651879498 x[121]
   + 4.264536745396186 x[122] + 2.514917875343592 x[123]
   + 1.818921271852896 x[124] + 3.31723460694483 x[125]
   + 1.345873868998919 x[126] + 4.546241212466324 x[127]
   + 1.181704824336984 x[128] + 2.682522062321471 x[129]
   + 2.379719130207821 x[130] + 4.419093482017274 x[131]
   + 3.188774716776497 x[132] + 1.417300902834672 x[133]
   + 0.9610813015259276 x[134] + 4.56430389256539 x[135]
   + 4.535456493255919 x[136] + 2.105407038864149 x[137]
   + 4.383029171618138 x[138] + 3.767207618082164 x[139]
   + 1.687653885190911 x[140] + 2.535829945857989 x[141]
   + 2.15352914718728 x[142] + 2.577410381345627 x[143]
   + 3.239860997163733 x[144] + 4.694105683254813 x[145]
   + 2.059309918110709 x[146] + 1.33487800861367 x[147]
   + 4.324835859005599 x[148] + 1.140447450264571 x[149] + 85 u[0]
   + 10 u[1] + 80 u[2] + 73 u[3] + 98 u[4] + 7 u[5] + 31 u[6] + 21 u[7]
   + 23 u[8] + 68 u[9] + 93 u[10] + 25 u[11] + 54 u[12] + 86 u[13]
   + 6 u[14] + 22 u[15] + 95 u[16] + 82 u[17] + 63 u[18] + 88 u[19]
   + 95 u[20] + 93 u[21] + 82 u[22] + 72 u[23] + 22 u[24] + 50 u[25]
   + 16 u[26] + 49 u[27] + 35 u[28] + 97 u[29] + 7 u[30] + 97 u[31]
   + 89 u[32] + 31 u[33] + 14 u[34] + 7 u[35] + 14 u[36] + 34 u[37]
   + 54 u[38] + 80 u[39] + 73 u[40] + 11 u[41] + 68 u[42] + 35 u[43]
   + 53 u[44] + 32 u[45] + 75 u[46] + 15 u[47] + 33 u[48] + 54 u[49]
   + 44 u[50] + 46 u[51] + 3 u[52] + 74 u[53] + 14 u[54] + 53 u[55]
   + 67 u[56] + 72 u[57] + 22 u[58] + 48 u[59] + 82 u[60] + 68 u[61]
   + 85 u[62] + 44 u[63] + 9 u[64] + 30 u[65] + 26 u[66] + 80 u[67]
   + 6 u[68] + 15 u[69] + 47 u[70] + 47 u[71] + 92 u[72] + 37 u[73]
   + 9 u[74] + 66 u[75] + 4 u[76] + 5 u[77] + 2 u[78] + 68 u[79] + 31 u[80]
   + 15 u[81] + 100 u[82] + 35 u[83] + 7 u[84] + 79 u[85] + 57 u[86]
   + 86 u[87] + 16 u[88] + 37 u[89] + 66 u[90] + 82 u[91] + 2 u[92]
   + 81 u[93] + 2 u[94] + 39 u[95] + 71 u[96] + 94 u[97] + 22 u[98]
   + 62 u[99] + 51 u[100] + 46 u[101] + 96 u[102] + 78 u[103] + 99 u[104]
   + 100 u[105] + 89 u[106] + 60 u[107] + 76 u[108] + 23 u[109]
   + 100 u[110] + 65 u[111] + 11 u[112] + 67 u[113] + 23 u[114] + 84 u[115]
   + 9 u[116] + 47 u[117] + 7 u[118] + 58 u[119] + 9 u[120] + 78 u[121]
   + 81 u[122] + 32 u[123] + 87 u[124] + 88 u[125] + 29 u[126] + 5 u[127]
   + 64 u[128] + 69 u[129] + 15 u[130] + 19 u[131] + 12 u[132] + 74 u[133]
   + 58 u[134] + 52 u[135] + 27 u[136] + 92 u[137] + 55 u[138] + 6 u[139]
   + 13 u[140] + 90 u[141] + 5 u[142] + 45 u[143] + 51 u[144] + 16 u[145]
   + 60 u[146] + 61 u[147] + 62 u[148] + 72 u[149] <= 90585
 mccormick1[0]: - u[0] + r[0] <= 0
 mccormick1[1]: - u[1] + r[1] <= 0
 mccormick1[2]: - u[2] + r[2] <= 0
 mccormick1[3]: - u[3] + r[3] <= 0
 mccormick1[4]: - u[4] + r[4] <= 0
 mccormick1[5]: - u[5] + r[5] <= 0
 mccormick1[6]: - u[6] + r[6] <= 0
 mccormick1[7]: - u[7] + r[7] <= 0
 mccormick1[8]: - u[8] + r[8] <= 0
 mccormick1[9]: - u[9] + r[9] <= 0
 mccormick1[10]: - u[10] + r[10] <= 0
 mccormick1[11]: - u[11] + r[11] <= 0
 mccormick1[12]: - u[12] + r[12] <= 0
 mccormick1[13]: - u[13] + r[13] <= 0
 mccormick1[14]: - u[14] + r[14] <= 0
 mccormick1[15]: - u[15] + r[15] <= 0
 mccormick1[16]: - u[16] + r[16] <= 0
 mccormick1[17]: - u[17] + r[17] <= 0
 mccormick1[18]: - u[18] + r[18] <= 0
 mccormick1[19]: - u[19] + r[19] <= 0
 mccormick1[20]: - u[20] + r[20] <= 0
 mccormick1[21]: - u[21] + r[21] <= 0
 mccormick1[22]: - u[22] + r[22] <= 0
 mccormick1[23]: - u[23] + r[23] <= 0
 mccormick1[24]: - u[24] + r[24] <= 0
 mccormick1[25]: - u[25] + r[25] <= 0
 mccormick1[26]: - u[26] + r[26] <= 0
 mccormick1[27]: - u[27] + r[27] <= 0
 mccormick1[28]: - u[28] + r[28] <= 0
 mccormick1[29]: - u[29] + r[29] <= 0
 mccormick1[30]: - u[30] + r[30] <= 0
 mccormick1[31]: - u[31] + r[31] <= 0
 mccormick1[32]: - u[32] + r[32] <= 0
 mccormick1[33]: - u[33] + r[33] <= 0
 mccormick1[34]: - u[34] + r[34] <= 0
 mccormick1[35]: - u[35] + r[35] <= 0
 mccormick1[36]: - u[36] + r[36] <= 0
 mccormick1[37]: - u[37] + r[37] <= 0
 mccormick1[38]: - u[38] + r[38] <= 0
 mccormick1[39]: - u[39] + r[39] <= 0
 mccormick1[40]: - u[40] + r[40] <= 0
 mccormick1[41]: - u[41] + r[41] <= 0
 mccormick1[42]: - u[42] + r[42] <= 0
 mccormick1[43]: - u[43] + r[43] <= 0
 mccormick1[44]: - u[44] + r[44] <= 0
 mccormick1[45]: - u[45] + r[45] <= 0
 mccormick1[46]: - u[46] + r[46] <= 0
 mccormick1[47]: - u[47] + r[47] <= 0
 mccormick1[48]: - u[48] + r[48] <= 0
 mccormick1[49]: - u[49] + r[49] <= 0
 mccormick1[50]: - u[50] + r[50] <= 0
 mccormick1[51]: - u[51] + r[51] <= 0
 mccormick1[52]: - u[52] + r[52] <= 0
 mccormick1[53]: - u[53] + r[53] <= 0
 mccormick1[54]: - u[54] + r[54] <= 0
 mccormick1[55]: - u[55] + r[55] <= 0
 mccormick1[56]: - u[56] + r[56] <= 0
 mccormick1[57]: - u[57] + r[57] <= 0
 mccormick1[58]: - u[58] + r[58] <= 0
 mccormick1[59]: - u[59] + r[59] <= 0
 mccormick1[60]: - u[60] + r[60] <= 0
 mccormick1[61]: - u[61] + r[61] <= 0
 mccormick1[62]: - u[62] + r[62] <= 0
 mccormick1[63]: - u[63] + r[63] <= 0
 mccormick1[64]: - u[64] + r[64] <= 0
 mccormick1[65]: - u[65] + r[65] <= 0
 mccormick1[66]: - u[66] + r[66] <= 0
 mccormick1[67]: - u[67] + r[67] <= 0
 mccormick1[68]: - u[68] + r[68] <= 0
 mccormick1[69]: - u[69] + r[69] <= 0
 mccormick1[70]: - u[70] + r[70] <= 0
 mccormick1[71]: - u[71] + r[71] <= 0
 mccormick1[72]: - u[72] + r[72] <= 0
 mccormick1[73]: - u[73] + r[73] <= 0
 mccormick1[74]: - u[74] + r[74] <= 0
 mccormick1[75]: - u[75] + r[75] <= 0
 mccormick1[76]: - u[76] + r[76] <= 0
 mccormick1[77]: - u[77] + r[77] <= 0
 mccormick1[78]: - u[78] + r[78] <= 0
 mccormick1[79]: - u[79] + r[79] <= 0
 mccormick1[80]: - u[80] + r[80] <= 0
 mccormick1[81]: - u[81] + r[81] <= 0
 mccormick1[82]: - u[82] + r[82] <= 0
 mccormick1[83]: - u[83] + r[83] <= 0
 mccormick1[84]: - u[84] + r[84] <= 0
 mccormick1[85]: - u[85] + r[85] <= 0
 mccormick1[86]: - u[86] + r[86] <= 0
 mccormick1[87]: - u[87] + r[87] <= 0
 mccormick1[88]: - u[88] + r[88] <= 0
 mccormick1[89]: - u[89] + r[89] <= 0
 mccormick1[90]: - u[90] + r[90] <= 0
 mccormick1[91]: - u[91] + r[91] <= 0
 mccormick1[92]: - u[92] + r[92] <= 0
 mccormick1[93]: - u[93] + r[93] <= 0
 mccormick1[94]: - u[94] + r[94] <= 0
 mccormick1[95]: - u[95] + r[95] <= 0
 mccormick1[96]: - u[96] + r[96] <= 0
 mccormick1[97]: - u[97] + r[97] <= 0
 mccormick1[98]: - u[98] + r[98] <= 0
 mccormick1[99]: - u[99] + r[99] <= 0
 mccormick1[100]: - u[100] + r[100] <= 0
 mccormick1[101]: - u[101] + r[101] <= 0
 mccormick1[102]: - u[102] + r[102] <= 0
 mccormick1[103]: - u[103] + r[103] <= 0
 mccormick1[104]: - u[104] + r[104] <= 0
 mccormick1[105]: - u[105] + r[105] <= 0
 mccormick1[106]: - u[106] + r[106] <= 0
 mccormick1[107]: - u[107] + r[107] <= 0
 mccormick1[108]: - u[108] + r[108] <= 0
 mccormick1[109]: - u[109] + r[109] <= 0
 mccormick1[110]: - u[110] + r[110] <= 0
 mccormick1[111]: - u[111] + r[111] <= 0
 mccormick1[112]: - u[112] + r[112] <= 0
 mccormick1[113]: - u[113] + r[113] <= 0
 mccormick1[114]: - u[114] + r[114] <= 0
 mccormick1[115]: - u[115] + r[115] <= 0
 mccormick1[116]: - u[116] + r[116] <= 0
 mccormick1[117]: - u[117] + r[117] <= 0
 mccormick1[118]: - u[118] + r[118] <= 0
 mccormick1[119]: - u[119] + r[119] <= 0
 mccormick1[120]: - u[120] + r[120] <= 0
 mccormick1[121]: - u[121] + r[121] <= 0
 mccormick1[122]: - u[122] + r[122] <= 0
 mccormick1[123]: - u[123] + r[123] <= 0
 mccormick1[124]: - u[124] + r[124] <= 0
 mccormick1[125]: - u[125] + r[125] <= 0
 mccormick1[126]: - u[126] + r[126] <= 0
 mccormick1[127]: - u[127] + r[127] <= 0
 mccormick1[128]: - u[128] + r[128] <= 0
 mccormick1[129]: - u[129] + r[129] <= 0
 mccormick1[130]: - u[130] + r[130] <= 0
 mccormick1[131]: - u[131] + r[131] <= 0
 mccormick1[132]: - u[132] + r[132] <= 0
 mccormick1[133]: - u[133] + r[133] <= 0
 mccormick1[134]: - u[134] + r[134] <= 0
 mccormick1[135]: - u[135] + r[135] <= 0
 mccormick1[136]: - u[136] + r[136] <= 0
 mccormick1[137]: - u[137] + r[137] <= 0
 mccormick1[138]: - u[138] + r[138] <= 0
 mccormick1[139]: - u[139] + r[139] <= 0
 mccormick1[140]: - u[140] + r[140] <= 0
 mccormick1[141]: - u[141] + r[141] <= 0
 mccormick1[142]: - u[142] + r[142] <= 0
 mccormick1[143]: - u[143] + r[143] <= 0
 mccormick1[144]: - u[144] + r[144] <= 0
 mccormick1[145]: - u[145] + r[145] <= 0
 mccormick1[146]: - u[146] + r[146] <= 0
 mccormick1[147]: - u[147] + r[147] <= 0
 mccormick1[148]: - u[148] + r[148] <= 0
 mccormick1[149]: - u[149] + r[149] <= 0
 mccormick2[0]: - x[0] + r[0] <= 0
 mccormick2[1]: - x[1] + r[1] <= 0
 mccormick2[2]: - x[2] + r[2] <= 0
 mccormick2[3]: - x[3] + r[3] <= 0
 mccormick2[4]: - x[4] + r[4] <= 0
 mccormick2[5]: - x[5] + r[5] <= 0
 mccormick2[6]: - x[6] + r[6] <= 0
 mccormick2[7]: - x[7] + r[7] <= 0
 mccormick2[8]: - x[8] + r[8] <= 0
 mccormick2[9]: - x[9] + r[9] <= 0
 mccormick2[10]: - x[10] + r[10] <= 0
 mccormick2[11]: - x[11] + r[11] <= 0
 mccormick2[12]: - x[12] + r[12] <= 0
 mccormick2[13]: - x[13] + r[13] <= 0
 mccormick2[14]: - x[14] + r[14] <= 0
 mccormick2[15]: - x[15] + r[15] <= 0
 mccormick2[16]: - x[16] + r[16] <= 0
 mccormick2[17]: - x[17] + r[17] <= 0
 mccormick2[18]: - x[18] + r[18] <= 0
 mccormick2[19]: - x[19] + r[19] <= 0
 mccormick2[20]: - x[20] + r[20] <= 0
 mccormick2[21]: - x[21] + r[21] <= 0
 mccormick2[22]: - x[22] + r[22] <= 0
 mccormick2[23]: - x[23] + r[23] <= 0
 mccormick2[24]: - x[24] + r[24] <= 0
 mccormick2[25]: - x[25] + r[25] <= 0
 mccormick2[26]: - x[26] + r[26] <= 0
 mccormick2[27]: - x[27] + r[27] <= 0
 mccormick2[28]: - x[28] + r[28] <= 0
 mccormick2[29]: - x[29] + r[29] <= 0
 mccormick2[30]: - x[30] + r[30] <= 0
 mccormick2[31]: - x[31] + r[31] <= 0
 mccormick2[32]: - x[32] + r[32] <= 0
 mccormick2[33]: - x[33] + r[33] <= 0
 mccormick2[34]: - x[34] + r[34] <= 0
 mccormick2[35]: - x[35] + r[35] <= 0
 mccormick2[36]: - x[36] + r[36] <= 0
 mccormick2[37]: - x[37] + r[37] <= 0
 mccormick2[38]: - x[38] + r[38] <= 0
 mccormick2[39]: - x[39] + r[39] <= 0
 mccormick2[40]: - x[40] + r[40] <= 0
 mccormick2[41]: - x[41] + r[41] <= 0
 mccormick2[42]: - x[42] + r[42] <= 0
 mccormick2[43]: - x[43] + r[43] <= 0
 mccormick2[44]: - x[44] + r[44] <= 0
 mccormick2[45]: - x[45] + r[45] <= 0
 mccormick2[46]: - x[46] + r[46] <= 0
 mccormick2[47]: - x[47] + r[47] <= 0
 mccormick2[48]: - x[48] + r[48] <= 0
 mccormick2[49]: - x[49] + r[49] <= 0
 mccormick2[50]: - x[50] + r[50] <= 0
 mccormick2[51]: - x[51] + r[51] <= 0
 mccormick2[52]: - x[52] + r[52] <= 0
 mccormick2[53]: - x[53] + r[53] <= 0
 mccormick2[54]: - x[54] + r[54] <= 0
 mccormick2[55]: - x[55] + r[55] <= 0
 mccormick2[56]: - x[56] + r[56] <= 0
 mccormick2[57]: - x[57] + r[57] <= 0
 mccormick2[58]: - x[58] + r[58] <= 0
 mccormick2[59]: - x[59] + r[59] <= 0
 mccormick2[60]: - x[60] + r[60] <= 0
 mccormick2[61]: - x[61] + r[61] <= 0
 mccormick2[62]: - x[62] + r[62] <= 0
 mccormick2[63]: - x[63] + r[63] <= 0
 mccormick2[64]: - x[64] + r[64] <= 0
 mccormick2[65]: - x[65] + r[65] <= 0
 mccormick2[66]: - x[66] + r[66] <= 0
 mccormick2[67]: - x[67] + r[67] <= 0
 mccormick2[68]: - x[68] + r[68] <= 0
 mccormick2[69]: - x[69] + r[69] <= 0
 mccormick2[70]: - x[70] + r[70] <= 0
 mccormick2[71]: - x[71] + r[71] <= 0
 mccormick2[72]: - x[72] + r[72] <= 0
 mccormick2[73]: - x[73] + r[73] <= 0
 mccormick2[74]: - x[74] + r[74] <= 0
 mccormick2[75]: - x[75] + r[75] <= 0
 mccormick2[76]: - x[76] + r[76] <= 0
 mccormick2[77]: - x[77] + r[77] <= 0
 mccormick2[78]: - x[78] + r[78] <= 0
 mccormick2[79]: - x[79] + r[79] <= 0
 mccormick2[80]: - x[80] + r[80] <= 0
 mccormick2[81]: - x[81] + r[81] <= 0
 mccormick2[82]: - x[82] + r[82] <= 0
 mccormick2[83]: - x[83] + r[83] <= 0
 mccormick2[84]: - x[84] + r[84] <= 0
 mccormick2[85]: - x[85] + r[85] <= 0
 mccormick2[86]: - x[86] + r[86] <= 0
 mccormick2[87]: - x[87] + r[87] <= 0
 mccormick2[88]: - x[88] + r[88] <= 0
 mccormick2[89]: - x[89] + r[89] <= 0
 mccormick2[90]: - x[90] + r[90] <= 0
 mccormick2[91]: - x[91] + r[91] <= 0
 mccormick2[92]: - x[92] + r[92] <= 0
 mccormick2[93]: - x[93] + r[93] <= 0
 mccormick2[94]: - x[94] + r[94] <= 0
 mccormick2[95]: - x[95] + r[95] <= 0
 mccormick2[96]: - x[96] + r[96] <= 0
 mccormick2[97]: - x[97] + r[97] <= 0
 mccormick2[98]: - x[98] + r[98] <= 0
 mccormick2[99]: - x[99] + r[99] <= 0
 mccormick2[100]: - x[100] + r[100] <= 0
 mccormick2[101]: - x[101] + r[101] <= 0
 mccormick2[102]: - x[102] + r[102] <= 0
 mccormick2[103]: - x[103] + r[103] <= 0
 mccormick2[104]: - x[104] + r[104] <= 0
 mccormick2[105]: - x[105] + r[105] <= 0
 mccormick2[106]: - x[106] + r[106] <= 0
 mccormick2[107]: - x[107] + r[107] <= 0
 mccormick2[108]: - x[108] + r[108] <= 0
 mccormick2[109]: - x[109] + r[109] <= 0
 mccormick2[110]: - x[110] + r[110] <= 0
 mccormick2[111]: - x[111] + r[111] <= 0
 mccormick2[112]: - x[112] + r[112] <= 0
 mccormick2[113]: - x[113] + r[113] <= 0
 mccormick2[114]: - x[114] + r[114] <= 0
 mccormick2[115]: - x[115] + r[115] <= 0
 mccormick2[116]: - x[116] + r[116] <= 0
 mccormick2[117]: - x[117] + r[117] <= 0
 mccormick2[118]: - x[118] + r[118] <= 0
 mccormick2[119]: - x[119] + r[119] <= 0
 mccormick2[120]: - x[120] + r[120] <= 0
 mccormick2[121]: - x[121] + r[121] <= 0
 mccormick2[122]: - x[122] + r[122] <= 0
 mccormick2[123]: - x[123] + r[123] <= 0
 mccormick2[124]: - x[124] + r[124] <= 0
 mccormick2[125]: - x[125] + r[125] <= 0
 mccormick2[126]: - x[126] + r[126] <= 0
 mccormick2[127]: - x[127] + r[127] <= 0
 mccormick2[128]: - x[128] + r[128] <= 0
 mccormick2[129]: - x[129] + r[129] <= 0
 mccormick2[130]: - x[130] + r[130] <= 0
 mccormick2[131]: - x[131] + r[131] <= 0
 mccormick2[132]: - x[132] + r[132] <= 0
 mccormick2[133]: - x[133] + r[133] <= 0
 mccormick2[134]: - x[134] + r[134] <= 0
 mccormick2[135]: - x[135] + r[135] <= 0
 mccormick2[136]: - x[136] + r[136] <= 0
 mccormick2[137]: - x[137] + r[137] <= 0
 mccormick2[138]: - x[138] + r[138] <= 0
 mccormick2[139]: - x[139] + r[139] <= 0
 mccormick2[140]: - x[140] + r[140] <= 0
 mccormick2[141]: - x[141] + r[141] <= 0
 mccormick2[142]: - x[142] + r[142] <= 0
 mccormick2[143]: - x[143] + r[143] <= 0
 mccormick2[144]: - x[144] + r[144] <= 0
 mccormick2[145]: - x[145] + r[145] <= 0
 mccormick2[146]: - x[146] + r[146] <= 0
 mccormick2[147]: - x[147] + r[147] <= 0
 mccormick2[148]: - x[148] + r[148] <= 0
 mccormick2[149]: - x[149] + r[149] <= 0
 mccormick3[0]: x[0] + u[0] - r[0] <= 1
 mccormick3[1]: x[1] + u[1] - r[1] <= 1
 mccormick3[2]: x[2] + u[2] - r[2] <= 1
 mccormick3[3]: x[3] + u[3] - r[3] <= 1
 mccormick3[4]: x[4] + u[4] - r[4] <= 1
 mccormick3[5]: x[5] + u[5] - r[5] <= 1
 mccormick3[6]: x[6] + u[6] - r[6] <= 1
 mccormick3[7]: x[7] + u[7] - r[7] <= 1
 mccormick3[8]: x[8] + u[8] - r[8] <= 1
 mccormick3[9]: x[9] + u[9] - r[9] <= 1
 mccormick3[10]: x[10] + u[10] - r[10] <= 1
 mccormick3[11]: x[11] + u[11] - r[11] <= 1
 mccormick3[12]: x[12] + u[12] - r[12] <= 1
 mccormick3[13]: x[13] + u[13] - r[13] <= 1
 mccormick3[14]: x[14] + u[14] - r[14] <= 1
 mccormick3[15]: x[15] + u[15] - r[15] <= 1
 mccormick3[16]: x[16] + u[16] - r[16] <= 1
 mccormick3[17]: x[17] + u[17] - r[17] <= 1
 mccormick3[18]: x[18] + u[18] - r[18] <= 1
 mccormick3[19]: x[19] + u[19] - r[19] <= 1
 mccormick3[20]: x[20] + u[20] - r[20] <= 1
 mccormick3[21]: x[21] + u[21] - r[21] <= 1
 mccormick3[22]: x[22] + u[22] - r[22] <= 1
 mccormick3[23]: x[23] + u[23] - r[23] <= 1
 mccormick3[24]: x[24] + u[24] - r[24] <= 1
 mccormick3[25]: x[25] + u[25] - r[25] <= 1
 mccormick3[26]: x[26] + u[26] - r[26] <= 1
 mccormick3[27]: x[27] + u[27] - r[27] <= 1
 mccormick3[28]: x[28] + u[28] - r[28] <= 1
 mccormick3[29]: x[29] + u[29] - r[29] <= 1
 mccormick3[30]: x[30] + u[30] - r[30] <= 1
 mccormick3[31]: x[31] + u[31] - r[31] <= 1
 mccormick3[32]: x[32] + u[32] - r[32] <= 1
 mccormick3[33]: x[33] + u[33] - r[33] <= 1
 mccormick3[34]: x[34] + u[34] - r[34] <= 1
 mccormick3[35]: x[35] + u[35] - r[35] <= 1
 mccormick3[36]: x[36] + u[36] - r[36] <= 1
 mccormick3[37]: x[37] + u[37] - r[37] <= 1
 mccormick3[38]: x[38] + u[38] - r[38] <= 1
 mccormick3[39]: x[39] + u[39] - r[39] <= 1
 mccormick3[40]: x[40] + u[40] - r[40] <= 1
 mccormick3[41]: x[41] + u[41] - r[41] <= 1
 mccormick3[42]: x[42] + u[42] - r[42] <= 1
 mccormick3[43]: x[43] + u[43] - r[43] <= 1
 mccormick3[44]: x[44] + u[44] - r[44] <= 1
 mccormick3[45]: x[45] + u[45] - r[45] <= 1
 mccormick3[46]: x[46] + u[46] - r[46] <= 1
 mccormick3[47]: x[47] + u[47] - r[47] <= 1
 mccormick3[48]: x[48] + u[48] - r[48] <= 1
 mccormick3[49]: x[49] + u[49] - r[49] <= 1
 mccormick3[50]: x[50] + u[50] - r[50] <= 1
 mccormick3[51]: x[51] + u[51] - r[51] <= 1
 mccormick3[52]: x[52] + u[52] - r[52] <= 1
 mccormick3[53]: x[53] + u[53] - r[53] <= 1
 mccormick3[54]: x[54] + u[54] - r[54] <= 1
 mccormick3[55]: x[55] + u[55] - r[55] <= 1
 mccormick3[56]: x[56] + u[56] - r[56] <= 1
 mccormick3[57]: x[57] + u[57] - r[57] <= 1
 mccormick3[58]: x[58] + u[58] - r[58] <= 1
 mccormick3[59]: x[59] + u[59] - r[59] <= 1
 mccormick3[60]: x[60] + u[60] - r[60] <= 1
 mccormick3[61]: x[61] + u[61] - r[61] <= 1
 mccormick3[62]: x[62] + u[62] - r[62] <= 1
 mccormick3[63]: x[63] + u[63] - r[63] <= 1
 mccormick3[64]: x[64] + u[64] - r[64] <= 1
 mccormick3[65]: x[65] + u[65] - r[65] <= 1
 mccormick3[66]: x[66] + u[66] - r[66] <= 1
 mccormick3[67]: x[67] + u[67] - r[67] <= 1
 mccormick3[68]: x[68] + u[68] - r[68] <= 1
 mccormick3[69]: x[69] + u[69] - r[69] <= 1
 mccormick3[70]: x[70] + u[70] - r[70] <= 1
 mccormick3[71]: x[71] + u[71] - r[71] <= 1
 mccormick3[72]: x[72] + u[72] - r[72] <= 1
 mccormick3[73]: x[73] + u[73] - r[73] <= 1
 mccormick3[74]: x[74] + u[74] - r[74] <= 1
 mccormick3[75]: x[75] + u[75] - r[75] <= 1
 mccormick3[76]: x[76] + u[76] - r[76] <= 1
 mccormick3[77]: x[77] + u[77] - r[77] <= 1
 mccormick3[78]: x[78] + u[78] - r[78] <= 1
 mccormick3[79]: x[79] + u[79] - r[79] <= 1
 mccormick3[80]: x[80] + u[80] - r[80] <= 1
 mccormick3[81]: x[81] + u[81] - r[81] <= 1
 mccormick3[82]: x[82] + u[82] - r[82] <= 1
 mccormick3[83]: x[83] + u[83] - r[83] <= 1
 mccormick3[84]: x[84] + u[84] - r[84] <= 1
 mccormick3[85]: x[85] + u[85] - r[85] <= 1
 mccormick3[86]: x[86] + u[86] - r[86] <= 1
 mccormick3[87]: x[87] + u[87] - r[87] <= 1
 mccormick3[88]: x[88] + u[88] - r[88] <= 1
 mccormick3[89]: x[89] + u[89] - r[89] <= 1
 mccormick3[90]: x[90] + u[90] - r[90] <= 1
 mccormick3[91]: x[91] + u[91] - r[91] <= 1
 mccormick3[92]: x[92] + u[92] - r[92] <= 1
 mccormick3[93]: x[93] + u[93] - r[93] <= 1
 mccormick3[94]: x[94] + u[94] - r[94] <= 1
 mccormick3[95]: x[95] + u[95] - r[95] <= 1
 mccormick3[96]: x[96] + u[96] - r[96] <= 1
 mccormick3[97]: x[97] + u[97] - r[97] <= 1
 mccormick3[98]: x[98] + u[98] - r[98] <= 1
 mccormick3[99]: x[99] + u[99] - r[99] <= 1
 mccormick3[100]: x[100] + u[100] - r[100] <= 1
 mccormick3[101]: x[101] + u[101] - r[101] <= 1
 mccormick3[102]: x[102] + u[102] - r[102] <= 1
 mccormick3[103]: x[103] + u[103] - r[103] <= 1
 mccormick3[104]: x[104] + u[104] - r[104] <= 1
 mccormick3[105]: x[105] + u[105] - r[105] <= 1
 mccormick3[106]: x[106] + u[106] - r[106] <= 1
 mccormick3[107]: x[107] + u[107] - r[107] <= 1
 mccormick3[108]: x[108] + u[108] - r[108] <= 1
 mccormick3[109]: x[109] + u[109] - r[109] <= 1
 mccormick3[110]: x[110] + u[110] - r[110] <= 1
 mccormick3[111]: x[111] + u[111] - r[111] <= 1
 mccormick3[112]: x[112] + u[112] - r[112] <= 1
 mccormick3[113]: x[113] + u[113] - r[113] <= 1
 mccormick3[114]: x[114] + u[114] - r[114] <= 1
 mccormick3[115]: x[115] + u[115] - r[115] <= 1
 mccormick3[116]: x[116] + u[116] - r[116] <= 1
 mccormick3[117]: x[117] + u[117] - r[117] <= 1
 mccormick3[118]: x[118] + u[118] - r[118] <= 1
 mccormick3[119]: x[119] + u[119] - r[119] <= 1
 mccormick3[120]: x[120] + u[120] - r[120] <= 1
 mccormick3[121]: x[121] + u[121] - r[121] <= 1
 mccormick3[122]: x[122] + u[122] - r[122] <= 1
 mccormick3[123]: x[123] + u[123] - r[123] <= 1
 mccormick3[124]: x[124] + u[124] - r[124] <= 1
 mccormick3[125]: x[125] + u[125] - r[125] <= 1
 mccormick3[126]: x[126] + u[126] - r[126] <= 1
 mccormick3[127]: x[127] + u[127] - r[127] <= 1
 mccormick3[128]: x[128] + u[128] - r[128] <= 1
 mccormick3[129]: x[129] + u[129] - r[129] <= 1
 mccormick3[130]: x[130] + u[130] - r[130] <= 1
 mccormick3[131]: x[131] + u[131] - r[131] <= 1
 mccormick3[132]: x[132] + u[132] - r[132] <= 1
 mccormick3[133]: x[133] + u[133] - r[133] <= 1
 mccormick3[134]: x[134] + u[134] - r[134] <= 1
 mccormick3[135]: x[135] + u[135] - r[135] <= 1
 mccormick3[136]: x[136] + u[136] - r[136] <= 1
 mccormick3[137]: x[137] + u[137] - r[137] <= 1
 mccormick3[138]: x[138] + u[138] - r[138] <= 1
 mccormick3[139]: x[139] + u[139] - r[139] <= 1
 mccormick3[140]: x[140] + u[140] - r[140] <= 1
 mccormick3[141]: x[141] + u[141] - r[141] <= 1
 mccormick3[142]: x[142] + u[142] - r[142] <= 1
 mccormick3[143]: x[143] + u[143] - r[143] <= 1
 mccormick3[144]: x[144] + u[144] - r[144] <= 1
 mccormick3[145]: x[145] + u[145] - r[145] <= 1
 mccormick3[146]: x[146] + u[146] - r[146] <= 1
 mccormick3[147]: x[147] + u[147] - r[147] <= 1
 mccormick3[148]: x[148] + u[148] - r[148] <= 1
 mccormick3[149]: x[149] + u[149] - r[149] <= 1
Bounds
Binaries
 x[0] x[1] x[2] x[3] x[4] x[5] x[6] x[7] x[8] x[9] x[10] x[11] x[12] x[13]
 x[14] x[15] x[16] x[17] x[18] x[19] x[20] x[21] x[22] x[23] x[24] x[25]
 x[26] x[27] x[28] x[29] x[30] x[31] x[32] x[33] x[34] x[35] x[36] x[37]
 x[38] x[39] x[40] x[41] x[42] x[43] x[44] x[45] x[46] x[47] x[48] x[49]
 x[50] x[51] x[52] x[53] x[54] x[55] x[56] x[57] x[58] x[59] x[60] x[61]
 x[62] x[63] x[64] x[65] x[66] x[67] x[68] x[69] x[70] x[71] x[72] x[73]
 x[74] x[75] x[76] x[77] x[78] x[79] x[80] x[81] x[82] x[83] x[84] x[85]
 x[86] x[87] x[88] x[89] x[90] x[91] x[92] x[93] x[94] x[95] x[96] x[97]
 x[98] x[99] x[100] x[101] x[102] x[103] x[104] x[105] x[106] x[107] x[108]
 x[109] x[110] x[111] x[112] x[113] x[114] x[115] x[116] x[117] x[118]
 x[119] x[120] x[121] x[122] x[123] x[124] x[125] x[126] x[127] x[128]
 x[129] x[130] x[131] x[132] x[133] x[134] x[135] x[136] x[137] x[138]
 x[139] x[140] x[141] x[142] x[143] x[144] x[145] x[146] x[147] x[148]
 x[149] u[0] u[1] u[2] u[3] u[4] u[5] u[6] u[7] u[8] u[9] u[10] u[11] u[12]
 u[13] u[14] u[15] u[16] u[17] u[18] u[19] u[20] u[21] u[22] u[23] u[24]
 u[25] u[26] u[27] u[28] u[29] u[30] u[31] u[32] u[33] u[34] u[35] u[36]
 u[37] u[38] u[39] u[40] u[41] u[42] u[43] u[44] u[45] u[46] u[47] u[48]
 u[49] u[50] u[51] u[52] u[53] u[54] u[55] u[56] u[57] u[58] u[59] u[60]
 u[61] u[62] u[63] u[64] u[65] u[66] u[67] u[68] u[69] u[70] u[71] u[72]
 u[73] u[74] u[75] u[76] u[77] u[78] u[79] u[80] u[81] u[82] u[83] u[84]
 u[85] u[86] u[87] u[88] u[89] u[90] u[91] u[92] u[93] u[94] u[95] u[96]
 u[97] u[98] u[99] u[100] u[101] u[102] u[103] u[104] u[105] u[106] u[107]
 u[108] u[109] u[110] u[111] u[112] u[113] u[114] u[115] u[116] u[117]
 u[118] u[119] u[120] u[121] u[122] u[123] u[124] u[125] u[126] u[127]
 u[128] u[129] u[130] u[131] u[132] u[133] u[134] u[135] u[136] u[137]
 u[138] u[139] u[140] u[141] u[142] u[143] u[144] u[145] u[146] u[147]
 u[148] u[149] r[0] r[1] r[2] r[3] r[4] r[5] r[6] r[7] r[8] r[9] r[10]
 r[11] r[12] r[13] r[14] r[15] r[16] r[17] r[18] r[19] r[20] r[21] r[22]
 r[23] r[24] r[25] r[26] r[27] r[28] r[29] r[30] r[31] r[32] r[33] r[34]
 r[35] r[36] r[37] r[38] r[39] r[40] r[41] r[42] r[43] r[44] r[45] r[46]
 r[47] r[48] r[49] r[50] r[51] r[52] r[53] r[54] r[55] r[56] r[57] r[58]
 r[59] r[60] r[61] r[62] r[63] r[64] r[65] r[66] r[67] r[68] r[69] r[70]
 r[71] r[72] r[73] r[74] r[75] r[76] r[77] r[78] r[79] r[80] r[81] r[82]
 r[83] r[84] r[85] r[86] r[87] r[88] r[89] r[90] r[91] r[92] r[93] r[94]
 r[95] r[96] r[97] r[98] r[99] r[100] r[101] r[102] r[103] r[104] r[105]
 r[106] r[107] r[108] r[109] r[110] r[111] r[112] r[113] r[114] r[115]
 r[116] r[117] r[118] r[119] r[120] r[121] r[122] r[123] r[124] r[125]
 r[126] r[127] r[128] r[129] r[130] r[131] r[132] r[133] r[134] r[135]
 r[136] r[137] r[138] r[139] r[140] r[141] r[142] r[143] r[144] r[145]
 r[146] r[147] r[148] r[149]
End
