instances/knapsack/discrete/knapsack_150_15.kp
47492
150
737

65 6.5 27
93 9.3 80
83 8.3 93
76 7.6 41
93 9.3 11
71 7.1 10
26 2.6 87
69 6.9 33
58 5.8 60
19 1.9 40
17 1.7 32
40 4.0 52
93 9.3 72
29 2.9 27
50 5.0 100
62 6.2 37
90 9.0 59
45 4.5 23
18 1.8 100
47 4.7 75
66 6.6 43
53 5.3 28
17 1.7 53
84 8.4 41
22 2.2 70
9 0.9 56
19 1.9 9
77 7.7 73
23 2.3 55
64 6.4 34
55 5.5 18
9 0.9 13
45 4.5 53
70 7.0 56
13 1.3 21
74 7.4 14
45 4.5 10
94 9.4 96
49 4.9 28
4 0.4 89
56 5.6 37
59 5.9 63
31 3.1 59
11 1.1 40
24 2.4 84
44 4.4 44
35 3.5 34
63 6.3 2
16 1.6 82
61 6.1 7
12 1.2 24
69 6.9 68
70 7.0 40
1 0.1 42
62 6.2 85
65 6.5 35
90 9.0 36
68 6.8 89
33 3.3 1
43 4.3 76
38 3.8 49
72 7.2 27
9 0.9 19
32 3.2 23
85 8.5 4
17 1.7 74
22 2.2 74
52 5.2 87
29 2.9 22
23 2.3 15
79 7.9 22
59 5.9 80
23 2.3 90
88 8.8 87
77 7.7 36
14 1.4 31
44 4.4 11
96 9.6 66
98 9.8 49
68 6.8 89
31 3.1 92
19 1.9 19
64 6.4 11
75 7.5 55
67 6.7 90
7 0.7 46
21 2.1 99
41 4.1 88
35 3.5 13
96 9.6 92
70 7.0 87
54 5.4 7
46 4.6 31
5 0.5 38
49 4.9 45
10 1.0 36
66 6.6 10
70 7.0 93
97 9.7 26
69 6.9 22
66 6.6 38
57 5.7 55
23 2.3 16
81 8.1 47
78 7.8 8
99 9.9 92
16 1.6 51
80 8.0 10
80 8.0 87
46 4.6 98
96 9.6 95
68 6.8 79
2 0.2 67
90 9.0 41
54 5.4 15
80 8.0 50
12 1.2 60
54 5.4 98
34 3.4 87
66 6.6 12
57 5.7 67
6 0.6 84
57 5.7 63
52 5.2 64
34 3.4 69
92 9.2 58
49 4.9 94
77 7.7 11
44 4.4 93
28 2.8 38
95 9.5 4
98 9.8 80
24 2.4 25
1 0.1 92
6 0.6 47
83 8.3 73
22 2.2 26
88 8.8 63
31 3.1 8
17 1.7 59
76 7.6 67
94 9.4 30
76 7.6 63
52 5.2 45
38 3.8 61
63 6.3 44
3 0.3 18
88 8.8 12
94 9.4 58
47 4.7 92

90585
710

[0.4463141985505662 2.4787493505476137 4.004065553630935 3.2149676061528316 3.380957344995069 0.6238798686581584 4.587596797278231 2.1599804978577186 1.1871503394477105 0.29865348545563 1.3859229266529924 2.9078226277924273 1.3451631159938926 2.4090851038954315 3.9289509953179897 0.07337662505746209 2.2937833942249437 1.9430783880464058 4.1247968170833795 0.8971746048678406 0.9839496278984322 1.9078668070038398 3.395699910619588 0.8533493140875625 3.427797100229468 2.4721205256459067 0.37166978318860605 1.731846009723743 1.9750951380837687 0.25919673210606203 1.0307614144293162 3.9362468001986697 4.030202712467127 0.757860285542813 4.690407850427021 0.3362937306048489 1.2499118045712438 3.18443082910051 4.474197232966005 1.3779203025082245 4.622685842623992 1.1577023279174723 1.4281619246867365 1.434694856671209 0.2722333027788342 0.08731950769864069 3.7347495727901183 0.13137271068217501 4.37333957411432 0.3699781021210526 0.8750057378355831 2.700973674317868 0.22527078484672 1.3379063899921262 1.2079032327677335 0.2819779514116804 4.137931817193291 0.135442067077798 0.386549815763796 0.06504036454001468 3.9855839331421574 3.5010354633252456 1.851604670512641 1.308488526516908 4.6985434382629325 1.6367267855647316 0.2542067091205176 2.1142268752130815 3.737400977373134 0.9849141347971873 2.6273882751569557 4.379119758037555 3.7792490536758216 2.8372720630781227 0.17820110660801008 0.5550819909957558 3.4645039296943847 1.0604368625908271 2.8719598955310044 1.4015484998605598 0.6549273980183086 1.9728442384708889 1.0368819499659327 4.425730283207694 0.03780679318135212 1.4642086768031246 3.9563356485382264 2.9148390108905375 1.8397939112660588 0.013446316192425497 0.7692812396902994 2.677607836758526 0.15065214432037757 1.255955722048986 4.136917990779531 4.286637271701665 4.0742086328001275 0.7362973908485225 2.698365098338189 3.26986358115544 3.535318012206407 1.8496930864224073 2.34314231317727 2.6029709618549943 2.11406659703851 0.6498134133072279 2.2069856158281853 3.8046299242776227 0.8244247450238945 4.664844491891504 2.051771252660196 0.16746344423770557 1.6534138337699693 2.6923263012894028 0.16103698844911302 2.17358404764168 3.84583178073748 4.05098137215292 4.5853080254709795 2.148926704774567 3.198290543501467 3.5453446518794984 4.264536745396186 2.5149178753435923 1.8189212718528964 3.31723460694483 1.3458738689989187 4.546241212466324 1.1817048243369843 2.682522062321471 2.379719130207821 4.419093482017274 3.188774716776497 1.4173009028346721 0.9610813015259276 4.56430389256539 4.535456493255919 2.105407038864149 4.383029171618138 3.7672076180821636 1.6876538851909109 2.5358299458579894 2.15352914718728 2.5774103813456266 3.239860997163733 4.694105683254813 2.0593099181107086 1.33487800861367 4.324835859005599 1.1404474502645712]

[85 10 80 73 98 7 31 21 23 68 93 25 54 86 6 22 95 82 63 88 95 93 82 72 22 50 16 49 35 97 7 97 89 31 14 7 14 34 54 80 73 11 68 35 53 32 75 15 33 54 44 46 3 74 14 53 67 72 22 48 82 68 85 44 9 30 26 80 6 15 47 47 92 37 9 66 4 5 2 68 31 15 100 35 7 79 57 86 16 37 66 82 2 81 2 39 71 94 22 62 51 46 96 78 99 100 89 60 76 23 100 65 11 67 23 84 9 47 7 58 9 78 81 32 87 88 29 5 64 69 15 19 12 74 58 52 27 92 55 6 13 90 5 45 51 16 60 61 62 72]
